RT is False
Default write of storage_offers_DA.csv just to have a file (but constraint should be inactive)
Reading model...
...model read.
creating competitive generators file...
...competitive generators recorded.
Loading data...
.. day-ahead data read.
Compiling instance...
...instance created.
Creating Offer Mitigation (model will solve as dispatch if TRUE)...
...storage offer mitigation file created
Converting model to MPEC...
...converted
MIP
NOTE: initial MIP solve with only storage competitive to get feasible solution
Solving...

Welcome to IBM(R) ILOG(R) CPLEX(R) Interactive Optimizer 12.9.0.0
  with Simplex, Mixed Integer & Barrier Optimizers
5725-A06 5725-A29 5724-Y48 5724-Y49 5724-Y54 5724-Y55 5655-Y21
Copyright IBM Corp. 1988, 2019.  All Rights Reserved.

Type 'help' for a list of available commands.
Type 'help' followed by a command name for more
information on commands.

CPLEX> Logfile 'cplex.log' closed.
Logfile 'C:\Users\llavin\Desktop\competitiveMPEC_dev1.27\logs\tmpn_5a96fh.cplex.log' open.
CPLEX> New value for parallel optimization mode: -1
CPLEX> New value for mixed integer optimality gap tolerance: 0.01
CPLEX> New value for feasibility tolerance: 1e-05
CPLEX> New value for deterministic time limit in ticks: 150000
CPLEX> Problem 'C:\Users\llavin\Desktop\competitiveMPEC_dev1.27\logs\tmpb5hg1y9l.pyomo.lp' read.
Read time = 0.25 sec. (13.83 ticks)
CPLEX> Problem name         : C:\Users\llavin\Desktop\competitiveMPEC_dev1.27\logs\tmpb5hg1y9l.pyomo.lp
Objective sense      : Maximize
Variables            :   53321  [Nneg: 889,  Box: 21854,  Free: 3480,
                                 Binary: 27098]
Objective nonzeros   :    8922
Linear constraints   :  122140  [Less: 40959,  Greater: 58612,  Equal: 22569]
  Nonzeros           :  288423
  RHS nonzeros       :   66948

Variables            : Min LB: -5000.000        Max UB: 5000.000       
Objective nonzeros   : Min   : 1.600000         Max   : 799.1000       
Linear constraints   :
  Nonzeros           : Min   : 0.8500000        Max   : 990000.0       
  RHS nonzeros       : Min   : 1.000000         Max   : 1000000.       
CPLEX> CPXPARAM_Parallel                                -1
CPXPARAM_Simplex_Tolerances_Feasibility          1.0000000000000001e-05
CPXPARAM_DetTimeLimit                            150000
CPXPARAM_MIP_Tolerances_MIPGap                   0.01
Tried aggregator 3 times.
MIP Presolve eliminated 88251 rows and 19081 columns.
MIP Presolve added 3315 rows and 0 columns.
MIP Presolve modified 24444 coefficients.
Aggregator did 12830 substitutions.
Reduced MIP has 24374 rows, 20828 columns, and 68374 nonzeros.
Reduced MIP has 8224 binaries, 0 generals, 0 SOSs, and 0 indicators.
Presolve time = 0.31 sec. (165.94 ticks)
Probing fixed 411 vars, tightened 5456 bounds.
Probing time = 0.08 sec. (21.21 ticks)
Tried aggregator 2 times.
MIP Presolve eliminated 925 rows and 831 columns.
MIP Presolve modified 2970 coefficients.
Aggregator did 42 substitutions.
Reduced MIP has 23407 rows, 19955 columns, and 65562 nonzeros.
Reduced MIP has 7809 binaries, 0 generals, 0 SOSs, and 0 indicators.
Presolve time = 0.13 sec. (89.05 ticks)
Probing fixed 0 vars, tightened 212 bounds.
Probing time = 0.11 sec. (21.39 ticks)
Clique table members: 38440.
MIP emphasis: balance optimality and feasibility.
MIP search method: dynamic search.
Parallel mode: opportunistic, using up to 32 threads.
Root relaxation solution time = 0.53 sec. (570.08 ticks)

        Nodes                                         Cuts/
   Node  Left     Objective  IInf  Best Integer    Best Bound    ItCnt     Gap

      0     0   137617.6621   218                 137617.6621     5996         
      0     0   132605.3784   197                   Cuts: 202     6265         
      0     0   131754.2458   181                   Cuts: 185     6416         
      0     0   131670.8693   167                    Cuts: 56     6474         
      0     0   131653.5377   168                     Cuts: 5     6477         
      0    21    infeasible                           Cuts: 8     6751         
Elapsed time = 6.47 sec. (3489.87 ticks, tree = 0.02 MB, solutions = 0)
    357    63    76126.0176   105                 118433.1818     9079         
    882   211    38799.1590    51                 115626.9923    19760         
   1521   887    infeasible                       115626.9923    38093         
   2186  1010  -237998.5717    35                 115626.9923    42175         
   2705  1163     9771.4945    44                 114306.2122    47557         
   3370  1364    32059.8537    54                 114306.2122    54928         
*  3734+ 1577                         7958.5390    99450.0824              --- 
   4391  1717    24248.8989    54     7958.5390    99450.0824    65655     --- 
   5011  1758    20305.3064    41     7958.5390    92639.9832    90473     --- 
   7838  2780    11421.9047    44     7958.5390    51449.7315   142870  546.47%
Elapsed time = 23.45 sec. (6491.08 ticks, tree = 16.81 MB, solutions = 1)
*  8441+ 2144                         9249.7234    19543.1354           111.28%
   8441  2143        cutoff           9249.7234     9249.7234   168248    0.00%

Cover cuts applied:  3
Implied bound cuts applied:  6
Flow cuts applied:  29
Mixed integer rounding cuts applied:  1
Gomory fractional cuts applied:  1

Root node processing (before b&c):
  Real time             =    5.22 sec. (3482.31 ticks)
Parallel b&c, 32 threads:
  Real time             =   23.30 sec. (6372.07 ticks)
  Sync time (average)   =    0.84 sec.
  Wait time (average)   =    0.00 sec.
                          ------------
Total (root+branch&cut) =   28.52 sec. (9854.39 ticks)

Solution pool: 2 solutions saved.

MIP - Integer optimal solution:  Objective =  9.2497234017e+03
Solution time =   28.55 sec.  Iterations = 168248  Nodes = 8441
Deterministic time = 9854.54 ticks  (345.22 ticks/sec)

CPLEX> Incumbent solution written to file 'C:\Users\llavin\Desktop\competitiveMPEC_dev1.27\logs\tmpsm7codf1.cplex.sol'.
CPLEX> Exporting results... 
